K = 3;
V = 20;
edge_weight = [|0, -1, 24, -1, -1, -1, 61, -1, -1, -1, -1, -1, -1, -1, -1, 37, -1, -1, -1, -1|
-1, 0, 26, 99, -1, -1, -1, -1, -1, -1, 51, -1, -1, 87, 60, -1, -1, 59, -1, -1|
14, 90, 0, 19, -1, -1, 50, -1, -1, 50, 60, -1, -1, -1, -1, 27, -1, -1, -1, -1|
-1, -1, -1, 0, 63, -1, -1, 87, 73, 84, 31, -1, 97, 96, 78, 12, -1, -1, -1, -1|
-1, -1, -1, 86, 0, 1, 28, -1, -1, -1, -1, 7, -1, 100, -1, -1, -1, -1, -1, 68|
1, -1, -1, -1, -1, 0, -1, -1, -1, 59, -1, 97, -1, -1, -1, 90, 38, -1, 53, 69|
-1, -1, 97, -1, 66, -1, 0, -1, -1, -1, -1, 29, -1, -1, 65, 32, -1, -1, -1, -1|
65, -1, -1, -1, 52, -1, 22, 0, -1, -1, -1, 18, 17, 4, 30, 13, 25, 1, 54, 2|
-1, -1, -1, -1, -1, 63, 94, 21, 0, -1, -1, 11, -1, -1, 66, -1, 26, -1, 29, -1|
96, 37, -1, -1, 37, -1, 33, -1, 48, 0, -1, 71, 44, 71, -1, -1, 25, 38, 6, -1|
60, -1, -1, 2, -1, -1, -1, 62, 95, -1, 0, -1, 84, 20, -1, -1, -1, -1, -1, -1|
100, 33, 10, 44, -1, -1, 25, -1, -1, 60, -1, 0, -1, -1, -1, 100, 10, -1, 84, -1|
-1, -1, -1, 85, -1, -1, 76, 1, 51, 52, -1, 67, 0, -1, 83, -1, -1, 51, 94, 67|
-1, 24, 12, 94, -1, 19, -1, 55, 34, 45, -1, 48, -1, 0, -1, 69, -1, 43, -1, 20|
65, -1, -1, -1, -1, 66, -1, -1, 48, 97, -1, -1, 7, -1, 0, -1, -1, 84, -1, 3|
69, -1, -1, -1, 60, -1, 89, -1, -1, 37, -1, 87, 25, -1, 88, 0, 17, 4, -1, -1|
-1, -1, -1, 9, 30, 24, 58, -1, 56, -1, -1, 79, -1, 75, -1, 78, 0, 82, 14, -1|
34, -1, 55, 85, -1, -1, -1, 15, 45, -1, 70, 9, 27, 59, -1, -1, 84, 0, -1, 27|
99, -1, 21, -1, -1, -1, 64, -1, -1, 18, 80, -1, -1, 7, -1, 55, -1, 31, 0, 51|
-1, -1, -1, -1, -1, -1, 3, -1, -1, 32, 56, -1, -1, -1, -1, -1, -1, 72, 58, 0|];
